num_features = 14;
num_usage_limits = 3;
num_plans = 3;
num_addons = 0;

features = ["surveys","testimonials","reviews","shareableLinks","feedbackRequestInEmail","abTesting","analytics","videoTestimonials","surveyEditor","feedbackRequestViaEmail","feedbackRequestViaQR","feedbackRequestViaWebsite","automations","integrations"];
usage_limits = ["surveysLimit","testimonialsOrReviewsAtTheSameTime","feedbackRequestViaEmailLimit"];
plans = ["STARTER","BUSINESS","PRO"];
addons = [];

plans_prices = [290,390,590];
addons_prices = [];

linked_features = array2d(USAGE_LIMITS, FEATURES, [
    % surveysLimit
    1,0,0,0,0,0,0,0,0,0,0,0,0,0,
    % testimonialsOrReviewsAtTheSameTime
    0,1,1,0,0,0,0,0,0,0,0,0,0,0,
    % feedbackRequestViaEmailLimit
    0,0,0,0,0,0,0,0,0,1,0,0,0,0
]);

plans_features = array2d(PLANS, FEATURES, [
    % STARTER
    1,1,1,1,1,1,1,1,1,1,1,1,1,1,
    % BUSINESS
    1,1,1,1,1,1,1,1,1,1,1,1,1,1,
    % PRO
    1,1,1,1,1,1,1,1,1,1,1,1,1,1
]);
plans_usage_limits = array2d(PLANS, USAGE_LIMITS, [
    % STARTER
    200,25,3000,
    % BUSINESS
    400,100,3000,
    % PRO
    2000,1000,3000
]);

addons_features = array2d(ADDONS, FEATURES, [
]);
addons_usage_limits = array2d(ADDONS, USAGE_LIMITS, [
]);
addons_usage_limits_extensions = array2d(ADDONS, USAGE_LIMITS, [
]);
addons_available_for = array2d(ADDONS, PLANS, [
]);
addons_depends_on = array2d(ADDONS, ADDONS, [
]);
